Version identifier: 12.10.0.0 | 2019-11-26 | 843d4de
CPXPARAM_WorkMem                                 28672
Tried aggregator 2 times.
Aggregator did 20 substitutions.
Reduced MIP has 73 rows, 90 columns, and 351 nonzeros.
Reduced MIP has 90 binaries, 0 generals, 0 SOSs, and 0 indicators.
Presolve time = 0,00 sec. (0,32 ticks)
Found incumbent of value 60,000000 after 0,00 sec. (0,62 ticks)
Probing time = 0,00 sec. (0,11 ticks)
Tried aggregator 1 time.
Detecting symmetries...
MIP Presolve eliminated 12 rows and 0 columns.
MIP Presolve added 24 rows and 0 columns.
Reduced MIP has 85 rows, 90 columns, and 363 nonzeros.
Reduced MIP has 90 binaries, 0 generals, 0 SOSs, and 0 indicators.
Presolve time = 0,00 sec. (0,40 ticks)
Probing time = 0,00 sec. (0,11 ticks)
Clique table members: 241.
MIP emphasis: balance optimality and feasibility.
MIP search method: dynamic search.
Parallel mode: deterministic, using up to 16 threads.
Root relaxation solution time = 0,00 sec. (0,20 ticks)

        Nodes                                         Cuts/
   Node  Left     Objective  IInf  Best Integer    Best Bound    ItCnt     Gap

*     0+    0                           60,0000        0,0000           100,00%
*     0+    0                           46,0000        0,0000           100,00%
*     0+    0                           41,0000        0,0000           100,00%
      0     0       20,0000    75       41,0000       20,0000       28   51,22%
      0     0       20,3676    75       41,0000      Cuts: 88       94   50,32%
      0     0       21,1624    75       41,0000     Cuts: 121      137   48,38%
      0     0       21,3015    75       41,0000     Cuts: 113      150   48,05%
      0     0       21,3413    75       41,0000       Cuts: 6      160   47,95%
      0     0       21,3474    75       41,0000      Cuts: 42      163   47,93%
      0     0       22,0978    75       41,0000      Cuts: 99      189   46,10%
      0     0       22,1563    75       41,0000       Cuts: 3      197   45,96%
      0     0       22,2308    75       41,0000       Cuts: 5      217   45,78%
      0     0       22,2401    75       41,0000      Cuts: 22      223   45,76%
      0     0       22,2529    75       41,0000       Cuts: 3      232   45,72%
      0     0       22,2622    75       41,0000      Cuts: 29      237   45,70%
      0     0       22,2658    75       41,0000       Cuts: 2      240   45,69%
      0     0       22,2666    75       41,0000   ZeroHalf: 6      241   45,69%
      0     0       22,2697    75       41,0000   ZeroHalf: 1      255   45,68%
*     0+    0                           40,0000       22,2697            44,33%
      0     0        cutoff             40,0000       40,0000      255    0,00%
Elapsed time = 0,06 sec. (32,19 ticks, tree = 0,01 MB, solutions = 4)

Clique cuts applied:  21
Cover cuts applied:  14
Mixed integer rounding cuts applied:  18
Zero-half cuts applied:  5
Lift and project cuts applied:  1
Gomory fractional cuts applied:  9

Root node processing (before b&c):
  Real time             =    0,06 sec. (32,20 ticks)
Parallel b&c, 16 threads:
  Real time             =    0,00 sec. (0,00 ticks)
  Sync time (average)   =    0,00 sec.
  Wait time (average)   =    0,00 sec.
                          ------------
Total (root+branch&cut) =    0,06 sec. (32,20 ticks)
